NAME : n80w80.004.594.tour
COMMENT : Length = 594
COMMENT : Found by LKH [Keld Helsgaun] Tue May  2 05:18:29 2017
TYPE : TOUR
DIMENSION : 81
TOUR_SECTION
1
17
42
59
20
74
31
38
75
61
58
11
46
72
13
73
71
62
4
78
54
80
40
29
45
22
9
3
23
25
32
2
67
34
37
77
41
33
53
21
8
24
57
66
50
16
19
60
65
52
49
70
64
36
28
63
39
15
18
7
43
26
79
35
44
12
27
56
68
47
51
10
48
5
69
55
76
14
81
6
30
-1
EOF
